5 5
2 38 3 87 0 58 1 67 4 45
0 44 4 8 2 66 1 71 3 61
0 17 2 71 1 97 4 36 3 68
2 80 3 21 0 82 1 46 4 46
1 92 2 16 0 22 4 6 3 94
-1
0 1 4 5
0 2 3 4 5
0 3 4 5
0 1 3 4 5
0 1 3 4 5
-2
40 303 296
77 165 222 373
250 254 459
100 241 261 351
112 133 210 252

442 9
10 5 22 2 17
20 12 3 8 18
0 11 21 15 7
1 24 16 14 9
6 23 13 4 19
